Version identifier: 22.1.1.0 | 2022-11-28 | 9160aff4d
CPXPARAM_ClockType                               1
CPXPARAM_Read_DataCheck                          1
CPXPARAM_Threads                                 1
CPXPARAM_TimeLimit                               7200
CPXPARAM_MIP_Tolerances_AbsMIPGap                0
CPXPARAM_MIP_Tolerances_MIPGap                   0
CPXPARAM_MIP_Tolerances_Integrality              0
Tried aggregator 2 times.
Aggregator has done 138 substitutions...
MIP Presolve eliminated 1430355 rows and 558 columns.
MIP Presolve modified 256778 coefficients.
Aggregator did 138 substitutions.
Reduced MIP has 2181951 rows, 73539 columns, and 8952872 nonzeros.
Reduced MIP has 73539 binaries, 0 generals, 0 SOSs, and 0 indicators.
Presolve time = 277.27 sec. (120187.86 ticks)
Probing time = 0.34 sec. (28.47 ticks)
Tried aggregator 1 time.
Presolve has eliminated 0 rows and 0 columns...
Detecting symmetries...
Reduced MIP has 2181951 rows, 73539 columns, and 8952872 nonzeros.
Reduced MIP has 73539 binaries, 0 generals, 0 SOSs, and 0 indicators.
Presolve time = 47.97 sec. (13197.60 ticks)
Probing time = 0.35 sec. (28.47 ticks)
Clique table members: 2122798.
MIP emphasis: balance optimality and feasibility.
MIP search method: dynamic search.
Parallel mode: none, using 1 thread.
